set C := 1 2 3 4 5 6 7 8 9 10;

param q :=
    1 21.76
    2 30.73
    3 16.03
    4 21.82
    5 45.48
    6 27.30
    7 43.30
    8 29.12
    9 17.80
    10 27.80;
param ca :=
    1 179.64
    2 154.20
    3 229.79
    4 185.05
    5 205.95
    6 168.02
    7 174.59
    8 243.69
    9 174.96
    10 159.36;
param cc :=
    1 36.87
    2 46.97
    3 37.69
    4 40.88
    5 48.11
    6 36.31
    7 44.91
    8 30.78
    9 45.43
    10 31.26;
param cp :=
    1 7.39
    2 6.71
    3 9.67
    4 8.43
    5 10.50
    6 6.92
    7 9.10
    8 10.29
    9 8.75
    10 8.28;
param sMin := 0;
param sMax := 80;

namespace t0
{
    set A :=;
    set AAnt := 1 2;
    set P := 3 4 5 6 7 8 9 10;
    set S := 1;

    param p :=
        1 1.0000000000;
    param d :=
        1 24.92;
    param h := 1;
    param s0 := 20;
}

namespace t1
{
    set AAnt :=;
    set P := 3 4 5 6 7 8 9 10;
    set PAnt := 3 4 5 6 7 8 9 10;
    set S := 1 2 3;

    param p :=
        1 0.0424640278
        2 0.1098650533
        3 0.8476709189;
    param d :=
        1 43.56
        2 48.01
        3 41.78;
    param h := 1;
}

namespace t2
{
    set A2Ant :=;
    set P := 3 4 5 6 7 8 9 10;
    set PAnt := 3 4 5 6 7 8 9 10;
    set S := 1 2 3;

    param p :=
        1 0.0986539512
        2 0.0884500150
        3 0.8128960338;
    param d :=
        1 28.77
        2 41.91
        3 21.15;
    param h := 1;
}

namespace t3
{
    set P := 3 4 5 6 7 8 9 10;
    set PAnt := 3 4 5 6 7 8 9 10;
    set S := 1 2 3;

    param p :=
        1 0.9180538149
        2 0.0749745355
        3 0.0069716496;
    param d :=
        1 27.64
        2 37.01
        3 21.62;
    param h := 1;
}

namespace t4
{
    set P := 3 4 5 6 7 8 9 10;
    set PAnt := 3 4 5 6 7 8 9 10;
    set S := 1 2 3;

    param p :=
        1 0.0798938696
        2 0.2279043874
        3 0.6922017430;
    param d :=
        1 14.38
        2 28.66
        3 32.30;
    param h := 1;
}

namespace t5
{
    set PAnt := 3 4 5 6 7 8 9 10;
    set S := 1 2 3;

    param p :=
        1 0.2130128074
        2 0.4607094487
        3 0.3262777439;
    param d :=
        1 10.73
        2 27.42
        3 26.07;
    param h := 1;
}
